p cnf 38 110
a 20 7 0
e 1 2 3 4 5 6 8 9 10 11 12 13 14 15 16 17 18 19 21 22 23 24 25 26 27 28 29 30 31 32 33 34 35 36 37 38 0
-3 -1 0
-3 2 0
1 -2 3 0
-6 -5 0
-6 5 0
-4 6 -7 0
4 -6 -7 0
-4 -6 7 0
4 6 7 0
-3 -7 -8 0
3 7 -8 0
-3 7 8 0
3 -7 8 0
10 6 0
10 -9 0
-6 9 -10 0
11 5 0
11 -10 0
-5 10 -11 0
14 -2 0
14 -5 0
2 5 -14 0
15 12 0
15 -14 0
-12 14 -15 0
16 13 0
16 15 0
-13 -15 -16 0
17 -12 0
17 16 0
12 -16 -17 0
-2 -6 -18 0
2 6 -18 0
-2 6 18 0
2 -6 18 0
17 18 -19 0
-17 -18 -19 0
17 -18 19 0
-17 18 19 0
20 11 0
20 19 0
-11 -19 -20 0
-21 14 0
-21 13 0
-14 -13 21 0
-7 13 -22 0
7 -13 -22 0
-7 -13 22 0
7 13 22 0
21 22 -23 0
-21 -22 -23 0
21 -22 23 0
-21 22 23 0
-24 1 0
-24 14 0
-1 -14 24 0
25 -1 0
25 -24 0
1 24 -25 0
-26 5 0
-26 4 0
-5 -4 26 0
27 -9 0
27 26 0
9 -26 -27 0
28 15 0
28 -7 0
-15 7 -28 0
-29 -27 0
-29 -28 0
27 28 29 0
-25 -29 -30 0
25 29 -30 0
-25 29 30 0
25 -29 30 0
32 -31 0
32 -26 0
31 26 -32 0
30 32 -33 0
-30 -32 -33 0
30 -32 33 0
-30 32 33 0
-34 -2 0
-34 24 0
2 -24 34 0
-35 33 0
-35 -34 0
-33 34 35 0
-23 -35 -36 0
23 35 -36 0
-23 35 36 0
23 -35 36 0
-37 20 0
-37 36 0
-20 -36 37 0
-8 37 -38 0
8 -37 -38 0
-8 -37 38 0
8 37 38 0
-7 -22 0
7 12 -35 37 -13 0
-38 22 -19 0
-5 -4 -14 0
9 10 -22 -1 0
-11 20 -33 0
-15 -30 -7 -36 37 0
25 22 -24 4 -33 -21 11 0
36 -7 21 9 23 6 0
2 -18 0
38 0
